proyfinal/src/viki/013/experimentInOfficeAgust.take6.output/fea10969-19e6-40f6-ad75-cf743fa0ee72.als.dat
{'cnf.clauses': '118081',
 'cnf.totvars': '69608',
 'conflict literals': '94',
 'conflicts': '30',
 'decisions': '12828',
 'memused.mb': '19.16',
 'outcome': 'UNSAT',
 'propagations': '46868',
 'restarts': '1',
 'solver.msecs': 35,
 'task.msecs': 85}
