proyfinal/src/viki/013/experimentInOfficeAgust.take6.output/fea10969-19e6-40f6-ad75-cf743fa0ee72.als.out
Reading from standard input... Use '--help' for help.
============================[ Problem Statistics ]=============================
|                                                                             |
|  Number of variables:         69608                                         |
|  Number of clauses:          118081                                         |
|  Parse time:                   0.02 s                                       |
|                                                                             |
============================[ Search Statistics ]==============================
| Conflicts |          ORIGINAL         |          LEARNT          | Progress |
|           |    Vars  Clauses Literals |    Limit  Clauses Lit/Cl |          |
===============================================================================
===============================================================================
restarts              : 1
conflicts             : 30             (850 /sec)
decisions             : 12828          (0.00 % random) (363492 /sec)
propagations          : 46868          (1328044 /sec)
conflict literals     : 94             (0.00 % deleted)
Memory used           : 19.16 MB
CPU time              : 0.035291 s

UNSATISFIABLE
